10
0	12	81	91	100	30	6	43	18	37	
12	0	92	4	77	3	21	24	16	59	
81	92	0	53	15	39	63	37	37	69	
91	4	53	0	75	84	74	8	29	30	
100	77	15	75	0	76	79	73	3	68	
30	3	39	84	76	0	43	93	33	59	
6	21	63	74	79	43	0	42	20	17	
43	24	37	8	73	93	42	0	74	48	
18	16	37	29	3	33	20	74	0	48	
37	59	69	30	68	59	17	48	48	0	
